p gcnf 113 252 25
{1} 1 0
{2} 2 0
{3} 3 0
{4} 4 0
{5} 5 0
{6} 6 0
{7} 7 0
{8} 8 0
{9} 9 0
{10} 10 0
{11} 11 0
{12} 12 0
{13} 13 0
{14} 14 0
{15} 15 0
{16} 16 0
{17} 17 0
{18} 18 0
{19} 19 0
{20} 20 0
{21} 21 0
{22} 22 0
{23} 23 0
{24} 24 0
{25} 25 0
{0} -39 29 41 0
{0} -40 30 41 0
{0} -34 29 41 0
{0} -35 30 41 0
{0} -34 -39 30 41 0
{0} -34 -40 41 0
{0} -35 -39 41 0
{0} -35 -40 29 0
{0} -41 26 0
{0} -36 26 0
{0} -41 -36 27 0
{0} -37 27 0
{0} -41 -37 28 0
{0} -38 28 0
{0} -41 -38 0
{0} -31 26 0
{0} -41 -31 27 0
{0} -32 27 0
{0} -41 -32 28 0
{0} -33 28 0
{0} -41 -33 0
{0} -31 -36 27 0
{0} -41 -31 -36 28 0
{0} -31 -37 28 0
{0} -41 -31 -37 0
{0} -31 -38 0
{0} -41 -31 -38 0
{0} -32 -36 28 0
{0} -41 -32 -36 0
{0} -32 -37 0
{0} -41 -32 -37 0
{0} -32 -38 0
{0} -41 -32 -38 0
{0} -33 -36 0
{0} -41 -33 -36 0
{0} -33 -37 0
{0} -41 -33 -37 0
{0} -33 -38 0
{0} -41 -33 -38 0
{0} -48 39 50 0
{0} -49 40 50 0
{0} -44 39 50 0
{0} -45 40 50 0
{0} -44 -48 40 50 0
{0} -44 -49 50 0
{0} -45 -48 50 0
{0} -45 -49 39 0
{0} -50 36 0
{0} -46 36 0
{0} -50 -46 37 0
{0} -47 37 0
{0} -50 -47 38 0
{0} -42 36 0
{0} -50 -42 37 0
{0} -43 37 0
{0} -50 -43 38 0
{0} -42 -46 37 0
{0} -50 -42 -46 38 0
{0} -42 -47 38 0
{0} -50 -42 -47 0
{0} -43 -46 38 0
{0} -50 -43 -46 0
{0} -43 -47 0
{0} -50 -43 -47 0
{0} -55 48 57 0
{0} -56 49 57 0
{0} -52 48 57 0
{0} -53 49 57 0
{0} -52 -55 49 57 0
{0} -52 -56 57 0
{0} -53 -55 57 0
{0} -53 -56 48 0
{0} -57 46 0
{0} -54 46 0
{0} -57 -54 47 0
{0} -51 46 0
{0} -57 -51 47 0
{0} -51 -54 47 0
{0} -57 -51 -54 0
{0} -24 58 0
{0} -23 58 0
{0} -23 -24 59 0
{0} -25 55 60 0
{0} -58 55 60 0
{0} -59 56 60 0
{0} -58 -25 56 60 0
{0} -59 -25 60 0
{0} -60 54 0
{0} -21 61 0
{0} -20 61 0
{0} -20 -21 62 0
{0} -22 52 63 0
{0} -61 52 63 0
{0} -62 53 63 0
{0} -61 -22 53 63 0
{0} -62 -22 63 0
{0} -63 51 0
{0} -68 44 70 0
{0} -69 45 70 0
{0} -65 44 70 0
{0} -66 45 70 0
{0} -65 -68 45 70 0
{0} -65 -69 70 0
{0} -66 -68 70 0
{0} -66 -69 44 0
{0} -70 42 0
{0} -67 42 0
{0} -70 -67 43 0
{0} -64 42 0
{0} -70 -64 43 0
{0} -64 -67 43 0
{0} -70 -64 -67 0
{0} -18 71 0
{0} -17 71 0
{0} -17 -18 72 0
{0} -19 68 73 0
{0} -71 68 73 0
{0} -72 69 73 0
{0} -71 -19 69 73 0
{0} -72 -19 73 0
{0} -73 67 0
{0} -15 74 0
{0} -14 74 0
{0} -14 -15 75 0
{0} -16 65 76 0
{0} -74 65 76 0
{0} -75 66 76 0
{0} -74 -16 66 76 0
{0} -75 -16 76 0
{0} -76 64 0
{0} -83 34 85 0
{0} -84 35 85 0
{0} -79 34 85 0
{0} -80 35 85 0
{0} -79 -83 35 85 0
{0} -79 -84 85 0
{0} -80 -83 85 0
{0} -80 -84 34 0
{0} -85 31 0
{0} -81 31 0
{0} -85 -81 32 0
{0} -82 32 0
{0} -85 -82 33 0
{0} -77 31 0
{0} -85 -77 32 0
{0} -78 32 0
{0} -85 -78 33 0
{0} -77 -81 32 0
{0} -85 -77 -81 33 0
{0} -77 -82 33 0
{0} -85 -77 -82 0
{0} -78 -81 33 0
{0} -85 -78 -81 0
{0} -78 -82 0
{0} -85 -78 -82 0
{0} -90 83 92 0
{0} -91 84 92 0
{0} -87 83 92 0
{0} -88 84 92 0
{0} -87 -90 84 92 0
{0} -87 -91 92 0
{0} -88 -90 92 0
{0} -88 -91 83 0
{0} -92 81 0
{0} -89 81 0
{0} -92 -89 82 0
{0} -86 81 0
{0} -92 -86 82 0
{0} -86 -89 82 0
{0} -92 -86 -89 0
{0} -12 93 0
{0} -11 93 0
{0} -11 -12 94 0
{0} -13 90 95 0
{0} -93 90 95 0
{0} -94 91 95 0
{0} -93 -13 91 95 0
{0} -94 -13 95 0
{0} -95 89 0
{0} -9 96 0
{0} -8 96 0
{0} -8 -9 97 0
{0} -10 87 98 0
{0} -96 87 98 0
{0} -97 88 98 0
{0} -96 -10 88 98 0
{0} -97 -10 98 0
{0} -98 86 0
{0} -103 79 105 0
{0} -104 80 105 0
{0} -100 79 105 0
{0} -101 80 105 0
{0} -100 -103 80 105 0
{0} -100 -104 105 0
{0} -101 -103 105 0
{0} -101 -104 79 0
{0} -105 77 0
{0} -102 77 0
{0} -105 -102 78 0
{0} -99 77 0
{0} -105 -99 78 0
{0} -99 -102 78 0
{0} -105 -99 -102 0
{0} -6 106 0
{0} -5 106 0
{0} -5 -6 107 0
{0} -7 103 108 0
{0} -106 103 108 0
{0} -107 104 108 0
{0} -106 -7 104 108 0
{0} -107 -7 108 0
{0} -108 102 0
{0} -2 109 0
{0} -1 109 0
{0} -1 -2 110 0
{0} -4 111 0
{0} -3 111 0
{0} -3 -4 112 0
{0} -111 100 113 0
{0} -112 101 113 0
{0} -109 100 113 0
{0} -110 101 113 0
{0} -109 -111 101 113 0
{0} -109 -112 113 0
{0} -110 -111 113 0
{0} -110 -112 100 0
{0} -113 99 0
